Version identifier: 22.1.1.0 | 2022-11-28 | 9160aff4d
CPXPARAM_Threads                                 1
CPXPARAM_MIP_Strategy_VariableSelect             3
CPXPARAM_TimeLimit                               599.99936453999999
Found incumbent of value 0.000000 after 0.00 sec. (0.13 ticks)

Root node processing (before b&c):
  Real time             =    0.00 sec. (0.16 ticks)
Sequential b&c:
  Real time             =    0.00 sec. (0.00 ticks)
                          ------------
Total (root+branch&cut) =    0.00 sec. (0.16 ticks)
Version identifier: 22.1.1.0 | 2022-11-28 | 9160aff4d
CPXPARAM_Threads                                 1
CPXPARAM_MIP_Strategy_VariableSelect             3
CPXPARAM_TimeLimit                               599.99393942500001
Found incumbent of value 0.000000 after 0.00 sec. (0.25 ticks)

Root node processing (before b&c):
  Real time             =    0.00 sec. (0.29 ticks)
Sequential b&c:
  Real time             =    0.00 sec. (0.00 ticks)
                          ------------
Total (root+branch&cut) =    0.00 sec. (0.29 ticks)
Version identifier: 22.1.1.0 | 2022-11-28 | 9160aff4d
CPXPARAM_Threads                                 1
CPXPARAM_MIP_Strategy_VariableSelect             3
CPXPARAM_TimeLimit                               599.98757911400003
Found incumbent of value 0.000000 after 0.00 sec. (0.29 ticks)

Root node processing (before b&c):
  Real time             =    0.00 sec. (0.33 ticks)
Sequential b&c:
  Real time             =    0.00 sec. (0.00 ticks)
                          ------------
Total (root+branch&cut) =    0.00 sec. (0.33 ticks)
Version identifier: 22.1.1.0 | 2022-11-28 | 9160aff4d
CPXPARAM_Threads                                 1
CPXPARAM_MIP_Strategy_VariableSelect             3
CPXPARAM_TimeLimit                               599.98042360399995
Tried aggregator 1 time.
MIP Presolve eliminated 18 rows and 609 columns.
MIP Presolve modified 1 coefficients.
Reduced MIP has 1212 rows, 1827 columns, and 14645 nonzeros.
Reduced MIP has 1827 binaries, 0 generals, 0 SOSs, and 0 indicators.
Presolve time = 0.01 sec. (8.06 ticks)
Found incumbent of value 0.000000 after 0.02 sec. (23.29 ticks)

Root node processing (before b&c):
  Real time             =    0.02 sec. (23.39 ticks)
Sequential b&c:
  Real time             =    0.00 sec. (0.00 ticks)
                          ------------
Total (root+branch&cut) =    0.02 sec. (23.39 ticks)
Version identifier: 22.1.1.0 | 2022-11-28 | 9160aff4d
CPXPARAM_Threads                                 1
CPXPARAM_MIP_Strategy_VariableSelect             3
CPXPARAM_TimeLimit                               599.95406427600005
Tried aggregator 1 time.
MIP Presolve eliminated 18 rows and 630 columns.
MIP Presolve modified 1 coefficients.
Reduced MIP has 1254 rows, 1890 columns, and 15156 nonzeros.
Reduced MIP has 1890 binaries, 0 generals, 0 SOSs, and 0 indicators.
Presolve time = 0.01 sec. (8.33 ticks)
Probing time = 0.00 sec. (2.50 ticks)
Tried aggregator 1 time.
Detecting symmetries...
Reduced MIP has 1254 rows, 1890 columns, and 15156 nonzeros.
Reduced MIP has 1890 binaries, 0 generals, 0 SOSs, and 0 indicators.
Presolve time = 0.01 sec. (9.40 ticks)
Probing time = 0.00 sec. (2.50 ticks)
Clique table members: 830.
MIP emphasis: balance optimality and feasibility.
MIP search method: dynamic search.
Parallel mode: none, using 1 thread.
Root relaxation solution time = 0.01 sec. (14.90 ticks)

        Nodes                                         Cuts/
   Node  Left     Objective  IInf  Best Integer    Best Bound    ItCnt     Gap

      0     0        0.0000    79                      0.0000      419         
*     0+    0                            0.0000        0.0000             0.00%
      0     0        cutoff              0.0000        0.0000      419    0.00%
Elapsed time = 0.06 sec. (86.49 ticks, tree = 0.01 MB, solutions = 1)

Root node processing (before b&c):
  Real time             =    0.06 sec. (86.57 ticks)
Sequential b&c:
  Real time             =    0.00 sec. (0.00 ticks)
                          ------------
Total (root+branch&cut) =    0.06 sec. (86.57 ticks)
Version identifier: 22.1.1.0 | 2022-11-28 | 9160aff4d
CPXPARAM_Threads                                 1
CPXPARAM_MIP_Strategy_VariableSelect             3
CPXPARAM_TimeLimit                               599.88483540599998
Tried aggregator 1 time.
MIP Presolve eliminated 18 rows and 639 columns.
MIP Presolve modified 1 coefficients.
Reduced MIP has 1272 rows, 1917 columns, and 15375 nonzeros.
Reduced MIP has 1917 binaries, 0 generals, 0 SOSs, and 0 indicators.
Presolve time = 0.01 sec. (8.44 ticks)
Probing time = 0.00 sec. (2.51 ticks)
Tried aggregator 1 time.
Detecting symmetries...
Reduced MIP has 1272 rows, 1917 columns, and 15375 nonzeros.
Reduced MIP has 1917 binaries, 0 generals, 0 SOSs, and 0 indicators.
Presolve time = 0.01 sec. (9.53 ticks)
Probing time = 0.00 sec. (2.51 ticks)
Clique table members: 842.
MIP emphasis: balance optimality and feasibility.
MIP search method: dynamic search.
Parallel mode: none, using 1 thread.
Root relaxation solution time = 0.01 sec. (13.17 ticks)

        Nodes                                         Cuts/
   Node  Left     Objective  IInf  Best Integer    Best Bound    ItCnt     Gap

      0     0        0.0000    78                      0.0000      374         
*     0+    0                            0.0000        0.0000             0.00%
      0     0        cutoff              0.0000        0.0000      374    0.00%
Elapsed time = 0.06 sec. (84.67 ticks, tree = 0.01 MB, solutions = 1)

Root node processing (before b&c):
  Real time             =    0.06 sec. (84.75 ticks)
Sequential b&c:
  Real time             =    0.00 sec. (0.00 ticks)
                          ------------
Total (root+branch&cut) =    0.06 sec. (84.75 ticks)
Version identifier: 22.1.1.0 | 2022-11-28 | 9160aff4d
CPXPARAM_Threads                                 1
CPXPARAM_MIP_Strategy_VariableSelect             3
CPXPARAM_TimeLimit                               599.81594947500002
Tried aggregator 1 time.
MIP Presolve eliminated 18 rows and 645 columns.
MIP Presolve modified 1 coefficients.
Reduced MIP has 1284 rows, 1935 columns, and 15521 nonzeros.
Reduced MIP has 1935 binaries, 0 generals, 0 SOSs, and 0 indicators.
Presolve time = 0.01 sec. (8.52 ticks)
Probing time = 0.00 sec. (2.51 ticks)
Tried aggregator 1 time.
Detecting symmetries...
Reduced MIP has 1284 rows, 1935 columns, and 15521 nonzeros.
Reduced MIP has 1935 binaries, 0 generals, 0 SOSs, and 0 indicators.
Presolve time = 0.01 sec. (9.62 ticks)
Probing time = 0.00 sec. (2.51 ticks)
Clique table members: 850.
MIP emphasis: balance optimality and feasibility.
MIP search method: dynamic search.
Parallel mode: none, using 1 thread.
Root relaxation solution time = 0.01 sec. (16.73 ticks)

        Nodes                                         Cuts/
   Node  Left     Objective  IInf  Best Integer    Best Bound    ItCnt     Gap

      0     0        0.0000    98                      0.0000      443         
*     0+    0                            0.0000        0.0000             0.00%
      0     0        cutoff              0.0000        0.0000      443    0.00%
Elapsed time = 0.07 sec. (88.96 ticks, tree = 0.01 MB, solutions = 1)

Root node processing (before b&c):
  Real time             =    0.07 sec. (89.03 ticks)
Sequential b&c:
  Real time             =    0.00 sec. (0.00 ticks)
                          ------------
Total (root+branch&cut) =    0.07 sec. (89.03 ticks)
Version identifier: 22.1.1.0 | 2022-11-28 | 9160aff4d
CPXPARAM_Threads                                 1
CPXPARAM_MIP_Strategy_VariableSelect             3
CPXPARAM_TimeLimit                               599.73938065899995
Tried aggregator 1 time.
MIP Presolve eliminated 18 rows and 648 columns.
MIP Presolve modified 1 coefficients.
Reduced MIP has 1290 rows, 1944 columns, and 15594 nonzeros.
Reduced MIP has 1944 binaries, 0 generals, 0 SOSs, and 0 indicators.
Presolve time = 0.01 sec. (8.56 ticks)
Probing time = 0.00 sec. (2.51 ticks)
Tried aggregator 1 time.
Detecting symmetries...
Reduced MIP has 1290 rows, 1944 columns, and 15594 nonzeros.
Reduced MIP has 1944 binaries, 0 generals, 0 SOSs, and 0 indicators.
Presolve time = 0.01 sec. (9.67 ticks)
Probing time = 0.00 sec. (2.51 ticks)
Clique table members: 854.
MIP emphasis: balance optimality and feasibility.
MIP search method: dynamic search.
Parallel mode: none, using 1 thread.
Root relaxation solution time = 0.01 sec. (13.61 ticks)

        Nodes                                         Cuts/
   Node  Left     Objective  IInf  Best Integer    Best Bound    ItCnt     Gap

      0     0        0.0000    90                      0.0000      390         
*     0+    0                            0.0000        0.0000             0.00%
      0     0        cutoff              0.0000        0.0000      390    0.00%
Elapsed time = 0.06 sec. (87.34 ticks, tree = 0.01 MB, solutions = 1)

Root node processing (before b&c):
  Real time             =    0.06 sec. (87.42 ticks)
Sequential b&c:
  Real time             =    0.00 sec. (0.00 ticks)
                          ------------
Total (root+branch&cut) =    0.06 sec. (87.42 ticks)
Primal:	216
Dual:	216
Status:	Optimal
Time:	0.331424
Sequence:
	1
	1
	4
	3
	2
	4
	4
	2
	9
	9
	4
	9
	3
	9
	9
	9
	9
	9
	11
	9
	4
	9
	9
	0
	9
	9
	0
	4
	4
	3
	4
	9
	4
	4
	9
	5
	11
	9
	9
	9
	4
	9
	9
	3
	9
	9
	4
	5
	9
	4
	9
	11
	9
	9
	4
	9
	0
	3
	4
	4
	9
	4
	9
	11
	9
	4
	9
	9
	9
	4
	11
	9
	9
	9
	1
	9
	9
	11
	9
	1
	9
	4
	9
	9
	3
	4
	9
	4
	4
	0
	3
	4
	0
	4
	1
	0
	4
	3
	0
	9
	5
	5
	0
	9
	9
	11
	0
	4
	6
	0
	4
	11
	4
	0
	5
	4
	0
	4
	5
	3
	0
	9
	1
	4
	0
	11
	9
	2
	5
	5
	0
	4
	11
	4
	1
	0
	4
	9
	11
	9
	0
	5
	4
	0
	4
	11
	4
	1
	0
	4
	4
	0
	4
	4
	0
	1
	11
	2
	5
	5
	0
	9
	3
	0
	5
	9
	0
	9
	5
	0
	4
	3
	4
	0
	5
	4
	0
	11
	4
	1
	5
	0
	9
	5
	0
	4
	1
	4
	9
	0
	3
	4
	0
	4
	4
	0
	5
	4
	11
	1
	4
	0
	4
	6
	3
	0
	9
	5
	4
	0
	4
	11
	0
	4
	1
	5
